80
125
100	2
99	2
98	3
97	1
96	5
95	2
94	4
93	1
92	5
91	2
90	2
89	2
88	2
87	3
86	3
85	3
84	2
83	3
82	2
80	4
79	3
78	1
77	2
76	4
75	1
73	1
72	3
71	1
68	2
66	1
64	2
63	3
62	3
61	4
60	2
59	3
58	2
57	3
56	2
55	3
54	2
53	3
52	2
51	1
50	1
49	3
48	3
47	3
46	3
45	1
44	2
43	1
42	4
41	1
40	5
39	2
38	2
37	2
36	4
34	2
32	1
31	2
30	1
29	4
28	1
27	2
26	2
25	6
24	2
23	3
22	3
21	3
20	4
19	1
18	3
17	6
16	4
15	1
14	2
13	3
